c Random 3-CNF over 20 variables and 100 clauses
c Generated with `cnfgen`
c (C) 2012-2016 Massimo Lauria <lauria.massimo@gmail.com>
c https://massimolauria.github.io/cnfgen
c
c COMMAND LINE: cnfgen --output tmp-3-20-100.dimacs --output-format dimacs randkcnf 3 20 100
c
c sdimacs generated by gen-sdimacs
c
p cnf 20 100
e 11 12 13 14 15 16 17 18 19 20 0
r 0.37 1 2 3 4 5 6 7 8 9 10 0
10 19 -20 0
1 -4 -17 0
4 -12 16 0
14 17 -18 0
1 11 -16 0
6 -13 -15 0
-1 -15 -16 0
6 12 -14 0
-8 -9 -18 0
-4 9 -12 0
-5 -11 16 0
4 -17 20 0
-4 -10 -20 0
12 -15 -19 0
-5 -6 12 0
-11 -15 20 0
-5 -10 12 0
-13 -16 -17 0
-1 -6 18 0
-12 13 15 0
2 -9 -20 0
3 5 17 0
10 -15 16 0
-3 5 -13 0
1 -3 -17 0
-14 15 -17 0
-4 -5 -18 0
6 -14 16 0
6 -11 -17 0
4 -9 19 0
-4 -11 12 0
3 11 19 0
-12 -15 19 0
-2 -3 -15 0
-5 -6 -14 0
12 16 -18 0
2 -8 -11 0
13 18 20 0
-4 7 9 0
-12 -15 17 0
5 15 16 0
-1 11 16 0
2 5 -15 0
-8 12 13 0
-5 17 -20 0
3 -5 -19 0
-4 -8 -13 0
-5 8 18 0
-5 -12 20 0
-6 -13 -20 0
12 16 -20 0
-9 -12 -15 0
-1 3 -13 0
-2 12 19 0
3 4 -20 0
-8 -9 20 0
3 -8 -20 0
3 8 11 0
-4 14 -18 0
-1 -3 -12 0
1 6 11 0
7 12 -19 0
12 -13 -15 0
3 8 19 0
-6 9 20 0
2 -8 -16 0
-9 -15 18 0
-10 -16 20 0
-5 -10 14 0
9 12 19 0
-3 -5 14 0
-7 8 12 0
2 13 18 0
-5 -15 -20 0
-4 14 -19 0
5 -8 13 0
-6 -11 13 0
5 -15 19 0
6 -8 -18 0
1 -4 13 0
-5 15 -19 0
-2 -7 -14 0
-7 -8 -12 0
-8 9 -13 0
-2 -3 -11 0
-14 18 19 0
1 5 -7 0
-3 8 10 0
-5 11 12 0
2 7 -12 0
8 9 15 0
1 -5 -11 0
-4 10 -16 0
-3 10 17 0
4 7 -15 0
-5 8 -20 0
8 13 14 0
4 -8 11 0
2 -8 -20 0
1 12 16 0
